155837 
58729 16
0
22
46
44
48
69
67
27
26
32
33
39
38
74
4
3

97108 60
75
2
21
25
49
50
52
53
54
42
43
28
29
30
31
19
20
5
6
7
8
9
10
11
12
13
14
15
16
17
18
37
36
35
34
40
41
60
59
61
62
64
63
57
58
55
56
51
66
65
73
72
71
70
68
47
45
24
23
1

